300
75 75
1 60 444
2 60 423
3 60 4
4 60 530
5 60 637
6 60 682
7 59 186
8 59 53
9 59 795
10 59 622
11 59 891
12 58 24
13 58 937
14 58 662
15 58 415
16 58 703
17 57 595
18 57 707
19 57 671
20 57 711
21 57 670
22 57 239
23 57 90
24 56 13
25 56 767
26 56 642
27 56 184
28 56 768
29 56 310
30 56 706
31 55 78
32 55 155
33 55 163
34 55 334
35 55 54
36 54 617
37 54 203
38 54 698
39 54 311
40 54 271
41 54 620
42 54 339
43 53 212
44 53 834
45 53 324
46 53 987
47 53 455
48 53 648
49 53 224
50 53 639
51 52 825
52 52 396
53 52 186
54 52 753
55 52 329
56 52 342
57 52 522
58 52 696
59 52 807
60 52 850
61 51 795
62 51 637
63 51 790
64 51 930
65 50 259
66 50 857
67 50 949
68 50 28
69 50 39
70 50 184
71 50 492
72 49 177
73 49 362
74 49 875
75 49 10
76 49 354
77 49 483
78 49 50
79 49 68
80 49 193
81 49 898
82 49 532
83 48 459
84 48 818
85 48 78
86 48 65
87 48 965
88 48 218
89 48 606
90 48 490
91 47 617
92 47 335
93 47 594
94 47 728
95 47 900
96 47 478
97 47 643
98 47 776
99 46 211
100 46 799
101 46 776
102 46 509
103 46 720
104 45 618
105 45 746
106 45 219
107 45 265
108 45 349
109 45 822
110 45 589
111 45 148
112 45 717
113 45 674
114 45 332
115 44 52
116 44 190
117 44 987
118 44 696
119 44 318
120 43 972
121 43 741
122 43 38
123 43 940
124 43 678
125 42 314
126 42 232
127 42 691
128 42 527
129 42 407
130 42 817
131 42 80
132 42 978
133 41 204
134 41 483
135 41 463
136 41 791
137 41 466
138 40 211
139 40 231
140 40 951
141 40 627
142 40 525
143 40 189
144 40 432
145 40 109
146 40 713
147 39 109
148 39 608
149 39 317
150 39 905
151 39 905
152 39 33
153 39 273
154 38 986
155 38 401
156 38 567
157 38 126
158 38 674
159 38 958
160 37 354
161 37 262
162 37 792
163 37 401
164 37 802
165 37 521
166 37 792
167 37 1
168 37 447
169 37 14
170 37 688
171 36 464
172 36 847
173 36 134
174 36 241
175 36 738
176 36 493
177 35 718
178 35 688
179 35 909
180 35 34
181 34 889
182 34 691
183 34 500
184 33 753
185 33 910
186 33 299
187 33 300
188 33 132
189 32 323
190 32 789
191 32 900
192 32 185
193 32 860
194 32 205
195 32 46
196 32 708
197 32 985
198 31 493
199 30 288
200 30 491
201 30 212
202 30 983
203 30 842
204 30 165
205 29 929
206 29 252
207 29 648
208 29 227
209 29 183
210 29 403
211 29 218
212 29 402
213 28 667
214 28 143
215 28 804
216 28 290
217 28 823
218 27 199
219 27 921
220 27 274
221 26 551
222 26 220
223 26 928
224 26 911
225 26 616
226 25 195
227 25 596
228 24 369
229 24 540
230 24 407
231 24 867
232 24 653
233 24 906
234 23 38
235 23 923
236 23 731
237 23 115
238 23 502
239 23 468
240 23 3
241 23 691
242 22 140
243 22 665
244 22 990
245 22 314
246 22 607
247 22 668
248 22 346
249 22 371
250 21 1
251 21 984
252 21 566
253 21 49
254 21 689
255 21 796
256 21 881
257 21 992
258 21 532
259 20 629
260 20 507
261 20 328
262 20 189
263 20 546
264 20 365
265 19 270
266 19 62
267 19 905
268 19 327
269 19 186
270 19 879
271 19 327
272 18 527
273 18 412
274 18 340
275 18 26
276 18 744
277 18 177
278 18 293
279 18 680
280 18 627
281 18 164
282 18 714
283 18 304
284 17 977
285 17 954
286 17 628
287 17 319
288 16 68
289 15 568
290 15 150
291 15 397
292 15 312
293 15 736
294 15 270
295 15 13
296 15 908
297 15 802
298 15 306
299 15 592
300 15 538
